lbl,CUST NO.,READY TIME,XCOORD.,YCOORD.,DEMAND,DUE DATE,SERVICE TIME
13,192,160,191,124,7,170,10
13,4,173,182,110,15,183,10
13,184,191,184,110,23,201,10
13,148,213,178,127,23,223,10
13,52,214,189,83,43,224,10
13,211,234,198,97,14,244,10
13,117,249,184,101,17,259,10
13,390,273,195,132,6,283,10
13,312,315,199,123,20,325,10
13,360,332,178,88,23,342,10
13,268,440,182,89,21,450,10
13,373,440,196,126,6,450,10
13,372,485,179,95,19,495,10
13,207,517,193,127,7,527,10
13,396,568,168,119,14,578,10
